NAME 
ROWS
 N  OBJ
 L  R0      
 L  R1      
 L  R2      
 L  R3      
 E  R4      
COLUMNS
    MARKER    'MARKER'                 'INTORG'
    I0(5)     OBJ       -820
    I0(5)     R0        -351
    I0(5)     R1        -845
    I0(5)     R2        -59
    I0(5)     R3        -8
    I0(5)     R4        134
    I1(5)     OBJ       -507
    I1(5)     R0        -447
    I1(5)     R1        -120
    I1(5)     R2        -444
    I1(5)     R3        -445
    I1(5)     R4        104
    I2(5)     OBJ       -89
    I2(5)     R0        -21
    I2(5)     R1        -58
    I2(5)     R2        -476
    I2(5)     R3        -600
    I2(5)     R4        183
    I3(5)     OBJ       -786
    I3(5)     R0        -38
    I3(5)     R1        -286
    I3(5)     R2        -147
    I3(5)     R3        -29
    I3(5)     R4        191
    I4(5)     OBJ       -342
    I4(5)     R0        -130
    I4(5)     R1        -626
    I4(5)     R2        -229
    I4(5)     R3        -482
    I4(5)     R4        389
    I5(5)     OBJ       -812
    I5(5)     R0        -349
    I5(5)     R1        -608
    I5(5)     R2        -817
    I5(5)     R3        -730
    I5(5)     R4        809
    I6(5)     OBJ       -919
    I6(5)     R0        -725
    I6(5)     R1        -321
    I6(5)     R2        -959
    I6(5)     R3        -377
    I6(5)     R4        799
    I7(5)     OBJ       -278
    I7(5)     R0        -530
    I7(5)     R1        -752
    I7(5)     R2        -148
    I7(5)     R3        -207
    I7(5)     R4        709
    I8(5)     OBJ       -195
    I8(5)     R0        -687
    I8(5)     R1        -624
    I8(5)     R2        -94
    I8(5)     R3        -259
    I8(5)     R4        560
    I9(5)     OBJ       -861
    I9(5)     R0        -927
    I9(5)     R1        -970
    I9(5)     R2        -154
    I9(5)     R3        -63
    I9(5)     R4        423
    I10(1)    R4        1
    MARKER    'MARKER'                 'INTEND'
RHS
    RHS1      R0        -2618
    RHS1      R1        -3168
    RHS1      R2        -1992
    RHS1      R3        -1404
    RHS1      R4        2150
BOUNDS
 UP BND1      I0(5)     1
 UP BND1      I1(5)     1
 UP BND1      I2(5)     1
 UP BND1      I3(5)     1
 UP BND1      I4(5)     1
 UP BND1      I5(5)     1
 UP BND1      I6(5)     1
 UP BND1      I7(5)     1
 UP BND1      I8(5)     1
 UP BND1      I9(5)     1
 LI BND1      I10(1)    0
ENDATA
